2 6 5 12 14 16 3 15 18 7 1 17 0 10 11 9 4 19 8 13  
2 6 5 12 14 16 17 0 7 4 10 18 11 1 8 9 3 19 15 13  
2 6 5 12 16 3 1 4 10 14 15 18 7 17 8 0 19 11 9 13  
2 6 5 12 16 3 1 10 4 14 15 18 7 17 8 0 19 11 13 9  
2 6 5 12 16 3 1 10 4 14 15 18 7 17 8 0 19 11 13 9  
2 6 5 12 16 3 1 10 4 14 15 18 7 17 8 0 19 11 13 9  
2 6 5 12 16 3 1 18 7 17 0 4 10 14 11 8 9 19 15 13  
2 6 5 12 16 3 1 4 10 14 15 18 7 17 8 0 19 11 9 13  
2 6 5 12 7 16 3 1 18 14 15 17 0 10 11 9 4 19 8 13  
2 6 5 12 16 3 1 4 0 14 15 19 10 18 11 8 9 7 17 13  
2 6 5 12 16 3 1 10 4 14 15 18 7 17 8 0 19 11 13 9  
2 6 5 12 16 3 1 10 4 14 15 18 7 17 8 9 19 13 0 11  
2 6 5 12 16 3 1 4 10 14 15 18 7 17 8 0 19 11 9 13  
2 6 5 12 16 3 1 4 14 15 0 19 10 18 11 8 9 7 17 13  
2 6 5 12 16 3 1 10 4 14 15 18 7 17 8 0 19 11 13 9  
2 6 5 12 16 3 1 10 4 14 15 18 7 17 0 19 13 11 9 8  
2 6 5 12 16 3 1 4 0 14 15 19 10 18 11 8 9 7 17 13  
2 6 5 12 14 16 17 0 7 4 10 18 11 1 8 9 3 19 15 13  
2 6 5 12 14 16 17 0 7 4 10 18 11 1 8 9 3 19 15 13  
